3 24 1 10
6 10 8 8 20 13 9 18 15 15 9 1 19 4 15 3 10 15 2 8 8 12 10 19 
4.54 12.21 8.55 7.54 3.35 0.71 7.91 8.2 8.45 10.66 10.77 1.42 11.93 4.09 11.68 2.47 6.79 8.73 7.3 15.32 13.98 8.82 5.8 11.41 
8 8 8 8 8 8 8 8 8 8 8 8 8 8 8 8 8 8 8 8 8 8 8 8 
11.81 12.17 15.91 5.07 14.8 1.18 8.79 8.46 4.88 2.13 9.96 1.43 10.95 2.83 8.43 9.55 5.46 8.87 7.29 10.82 1.31 11.18 4.66 12.19 
1 1 1 1 1 1 1 1 1 1 1 1 1 1 1 1 1 1 1 1 1 1 1 1 
1 1 1 1 1 1 1 1 1 1 1 1 1 1 1 1 1 1 1 1 1 1 1 1 
1 1 1 1 1 1 1 1 1 1 1 1 1 1 1 1 1 1 1 1 1 1 1 1 
0.01 0.01 0.01 0.01 0.01 0.01 0.01 0.01 0.01 0.01 0.01 0.01 0.01 0.01 0.01 0.01 0.01 0.01 0.01 0.01 0.01 0.01 0.01 0.01 
0.02 0.02 0.02 0.02 0.02 0.02 0.02 0.02 0.02 0.02 0.02 0.02 0.02 0.02 0.02 0.02 0.02 0.02 0.02 0.02 0.02 0.02 0.02 0.02 
1 1 1 1 1 1 1 1 1 1 1 1 1 1 1 1 1 1 1 1 1 1 1 1 
